<number of tasks>
50

<cycle time>
1000

<order strength>
0.596


<task times>
1 90
2 184
3 58
4 96
5 360
6 25
7 149
8 292
9 234
10 246
11 204
12 59
13 192
14 85
15 236
16 128
17 74
18 467
19 152
20 523
21 534
22 46
23 537
24 577
25 476
26 577
27 573
28 61
29 34
30 483
31 24
32 280
33 248
34 58
35 272
36 524
37 422
38 153
39 191
40 244
41 125
42 265
43 141
44 230
45 317
46 115
47 31
48 242
49 568
50 171

<precedence relations>
1,12
2,12
3,12
4,12
5,32
6,9
6,13
7,9
7,11
7,23
8,9
8,10
8,13
8,21
8,22
9,20
10,20
11,20
12,14
12,15
12,16
12,17
12,18
12,19
13,32
13,33
13,34
14,20
15,20
15,23
15,24
16,20
16,30
16,31
17,43
18,20
18,22
19,21
19,24
20,25
20,26
20,27
20,28
20,29
20,42
21,32
22,32
23,30
23,31
23,33
24,30
25,44
26,34
27,33
27,44
28,34
29,49
30,32
31,32
31,34
32,35
32,36
32,37
32,38
32,39
32,40
32,41
34,43
34,44
35,43
36,42
36,46
37,44
38,42
39,49
40,42
41,44
42,47
42,49
43,45
44,45
45,46
45,47
46,49
46,50
47,48

<end>
